Version identifier: 22.1.0.0 | 2022-03-09 | 1a383f8ce
CPXPARAM_Threads                                 1
CPXPARAM_MIP_Strategy_VariableSelect             3
CPXPARAM_TimeLimit                               599.99998292999999
1 of 1 MIP starts provided solutions.
MIP start 'm1' defined initial solution with objective 1.0000.
Tried aggregator 2 times.
MIP Presolve eliminated 44 rows and 1 columns.
MIP Presolve added 36 rows and 9 columns.
MIP Presolve modified 48 coefficients.
Aggregator did 9 substitutions.
Reduced MIP has 4504 rows, 10500 columns, and 226123 nonzeros.
Reduced MIP has 10500 binaries, 0 generals, 0 SOSs, and 0 indicators.
Presolve time = 0.31 sec. (431.94 ticks)
Probing time = 0.03 sec. (27.50 ticks)
Tried aggregator 1 time.
Detecting symmetries...
MIP Presolve modified 15 coefficients.
Reduced MIP has 4504 rows, 10500 columns, and 226297 nonzeros.
Reduced MIP has 10500 binaries, 0 generals, 0 SOSs, and 0 indicators.
Presolve time = 0.23 sec. (343.26 ticks)
Probing time = 0.04 sec. (27.51 ticks)
Clique table members: 2992.
MIP emphasis: balance optimality and feasibility.
MIP search method: dynamic search.
Parallel mode: none, using 1 thread.
Root relaxation solution time = 4.55 sec. (4929.78 ticks)

        Nodes                                         Cuts/
   Node  Left     Objective  IInf  Best Integer    Best Bound    ItCnt     Gap

*     0+    0                            1.0000   125250.0000              --- 
      0     0      500.0000  2033        1.0000      500.0000    10021     --- 
*     0+    0                          500.0000      500.0000             0.00%
      0     0        cutoff            500.0000      500.0000    10021    0.00%
Elapsed time = 33.02 sec. (32826.52 ticks, tree = 0.01 MB, solutions = 2)

Root node processing (before b&c):
  Real time             =   33.02 sec. (32826.93 ticks)
Sequential b&c:
  Real time             =    0.00 sec. (0.00 ticks)
                          ------------
Total (root+branch&cut) =   33.02 sec. (32826.93 ticks)
Primal:	500
Dual:	500
Status:	Optimal
Time:	33.07
Sequence:
	15
	16
	5
	15
	16
	5
	15
	16
	5
	15
	16
	1
	11
	2
	0
	8
	7
	1
	16
	15
	5
	16
	15
	5
	16
	15
	5
	16
	15
	5
	16
	7
	18
	17
	10
	18
	17
	10
	5
	17
	10
	2
	14
	9
	4
	14
	9
	18
	3
	9
	2
	3
	9
	18
	3
	9
	1
	14
	9
	18
	14
	0
	11
	3
	0
	11
	14
	0
	11
	3
	13
	11
	3
	13
	11
	3
	13
	11
	14
	0
	15
	14
	0
	11
	14
	0
	11
	14
	0
	7
	17
	13
	7
	8
	0
	7
	8
	13
	7
	8
	13
	7
	8
	13
	7
	14
	0
	11
	14
	0
	11
	14
	0
	11
	14
	0
	11
	3
	13
	11
	3
	13
	11
	3
	13
	11
	3
	13
	11
	14
	0
	11
	14
	0
	12
	14
	10
	4
	8
	10
	4
	8
	10
	4
	14
	9
	4
	3
	9
	1
	14
	13
	7
	8
	13
	7
	17
	0
	7
	8
	0
	7
	8
	13
	7
	8
	13
	7
	8
	0
	7
	17
	13
	7
	3
	13
	11
	14
	0
	11
	14
	0
	15
	3
	13
	11
	3
	13
	18
	17
	10
	4
	3
	9
	18
	3
	9
	5
	14
	13
	7
	17
	13
	7
	17
	0
	7
	17
	0
	7
	8
	13
	1
	17
	10
	1
	8
	10
	2
	17
	10
	5
	3
	9
	4
	14
	9
	4
	3
	9
	4
	14
	9
	2
	3
	9
	18
	3
	9
	18
	14
	9
	4
	1
	19
	2
	18
	17
	10
	4
	8
	10
	4
	8
	10
	18
	17
	10
	1
	8
	10
	18
	17
	10
	18
	3
	9
	2
	3
	9
	18
	14
	9
	2
	3
	9
	18
	3
	9
	4
	3
	10
	4
	8
	10
	4
	8
	13
	7
	8
	13
	7
	8
	13
	7
	8
	0
	18
	17
	10
	18
	14
	9
	1
	14
	10
	6
	14
	10
	12
	1
	19
	6
	2
	19
	6
	2
	19
	6
	18
	19
	6
	2
	19
	1
	4
	19
	1
	18
	8
	10
	1
	18
	17
	10
	4
	8
	10
	2
	17
	10
	2
	17
	10
	2
	17
	10
	4
	8
	10
	4
	8
	10
	4
	8
	10
	4
	14
	9
	1
	3
	9
	18
	2
	19
	12
	2
	19
	12
	5
	19
	12
	5
	19
	6
	1
	19
	4
	6
	19
	18
	6
	19
	4
	6
	19
	2
	12
	19
	18
	6
	16
	5
	15
	16
	5
	15
	16
	5
	15
	16
	5
	15
	16
	5
	15
	16
	1
	7
	16
	1
	18
	19
	6
	18
	19
	12
	2
	19
	12
	2
	19
	12
	2
	19
	6
	18
	19
	6
	2
	19
	12
	2
	19
	6
	18
	19
	12
	5
	16
	15
	5
	16
	15
	5
	16
	15
	5
	16
	15
	5
	16
	15
	5
	16
	5
	15
	16
	1
	6
	19
	2
	12
	19
	18
	6
	19
	5
	6
	16
	2
	6
	19
	5
	6
	19
	1
	6
	19
	18
	6
	19
	5
	12
	19
	18
	6
	19
	18
	6
	19
	18
	6
	19
	2
	12
	19
	2
	12
	19
